webassembly/ejemplos_dzn/11/folder11_json_55.dzn
TERM = { '.', 's(2)', 's(5)', 's(4)', 'in_10', 'in_1', 'local_0', 'in_6', 'in_2', 'in_4', 'in_3', 'in_9', 'in_8', 's(1)', 's(0)', 'in_7', 'in_5', 's(3)', 'in_0'};
null = '.';
s = 11;
n = 17;
ndeps = 6;
max_registers_sz = 4;
NR = 1;
registers = [|'local_0', 's(3)'|];
dependencies = [|'i32.load_2', 'i32.store8_4', |'i32.store8_4', 'i32.load16_u_5', |'i32.store_7', 'i32.store8_8', |'i32.store8_8', 'i32.store8_9', |'i32.store8_9', 'i32.load8_u_10', |'i32.load16_u_5', 'i32.store_7'|];
GET_ENUM = { GET1, GET2, GET3, GET4, GET5};
SET_ENUM = { SET1, SET2, SET3, SET4, SET5};
TEE_ENUM = { TEE1, TEE2, TEE3, TEE4, TEE5};
N = 10;
OP = { 'i32.const_0', 'i32.sub_0', 'i32.load_2', 'i32.sub_1', 'i32.store8_4', 'i32.load16_u_5', 'i32.store_7', 'i32.store8_8', 'i32.store8_9', 'i32.load8_u_10' };
in_ops = [0, 2, 1, 2, 2, 1, 2, 2, 2, 1 ];
out_ops = [1, 1, 1, 1, 0, 1, 0, 0, 0, 1 ];
in1 = ['.', 's(5)', 's(0)', 's(1)', 's(2)', 'in_3', 'in_4', 'in_6', 'in_8', 'in_10' ];
in2 = ['.', 'in_0', '.', 'in_1', 'in_2', '.', 'in_5', 'in_7', 'in_9', '.' ];
in3 = ['.', '.', '.', '.', '.', '.', '.', '.', '.', '.' ];
out1 = ['s(5)', 's(0)', 's(1)', 's(2)', '.', 's(3)', '.', '.', '.', 's(4)' ];
out2 = ['.', '.', '.', '.', '.', '.', '.', '.', '.', '.' ];
out3 = ['.', '.', '.', '.', '.', '.', '.', '.', '.', '.' ];
comm = [false, false, false, false, false, false, false, false, false, false ];
gas = [1, 1, 1, 1, 1, 1, 1, 1, 1, 1 ];
sz = [1, 1, 1, 1, 1, 1, 1, 1, 1, 1 ];
stor = [false, false, false, false, true, false, true, true, true, false ];
lb = [ 1, 1, 1, 1, 1, 1, 1, 1, 1, 1 ];
ub = [ 11, 11, 11, 11, 11, 11, 11, 11, 11, 11 ];
startstack = [ 'in_0', 'in_1', 'in_2', 'in_3', 'in_4', 'in_5', 'in_6', 'in_7', 'in_8', 'in_9', 'in_10', null, null, null, null, null, null ];
endstack = [ 's(4)', null, null, null, null, null, null, null, null, null, null, null, null, null, null, null, null ];
